proyfinal/src/viki/013/andrea/andrea-localstore/experimentInOfficeAgust.take6/worker_4/0ba74095-5421-4d5e-913c-33c7713dc23a.als.cnf.out
Reading from standard input... Use '--help' for help.
============================[ Problem Statistics ]=============================
|                                                                             |
|  Number of variables:         87638                                         |
|  Number of clauses:          161767                                         |
|  Parse time:                   0.04 s                                       |
|                                                                             |
============================[ Search Statistics ]==============================
| Conflicts |          ORIGINAL         |          LEARNT          | Progress |
|           |    Vars  Clauses Literals |    Limit  Clauses Lit/Cl |          |
===============================================================================
|       100 |   66462   120271   299692 |    44099      100     18 | 24.163 % |
|       250 |   60673   101724   254016 |    48509      245     22 | 30.769 % |
|       475 |   60601   101305   253044 |    53360      468     63 | 30.851 % |
|       812 |   60601   101305   253044 |    58696      805     57 | 30.851 % |
|      1318 |   60561   101227   252864 |    64565     1309     80 | 30.896 % |
|      2077 |   60443   100695   251635 |    71022     2064     70 | 31.031 % |
|      3216 |   60443   100695   251635 |    78124     3203    108 | 31.031 % |
|      4924 |   60310   100200   250466 |    85937     4907     97 | 31.183 % |
|      7486 |   59937    99797   249495 |    94530     7457    100 | 31.608 % |
|     11330 |   59636    97633   244463 |   103983    11261     94 | 31.952 % |
|     17096 |   59536    97098   243204 |   114382    17016     95 | 32.066 % |
===============================================================================
restarts              : 63
conflicts             : 17605          (7051 /sec)
decisions             : 97879          (0.00 % random) (39200 /sec)
propagations          : 27666004       (11080074 /sec)
conflict literals     : 1687784        (25.59 % deleted)
Memory used           : 43.19 MB
CPU time              : 2.49691 s

INDETERMINATE
